143
1000000
369030
255116
89443
375051
110
261521
328843
228088
173720
233681
111536
417870
226024
492411
24695
104691
32488
20974
466462
146227
275591
154866
142225
228914
267527
470325
76985
155460
4107
268594
31842
2242
264174
89747
22256
78475
356940
269131
107775
379146
29710
245673
44677
152886
6780
109760
307144
95280
165144
315525
41995
46982
139458
331101
271830
305147
478522
375724
342887
158783
287509
9900
10007
5940
421102
319959
26111
35128
148318
377991
65429
39799
63321
17603
300106
50844
155768
416464
67189
158625
17610
437475
32551
117246
40667
255705
484010
188245
478722
344804
278792
344235
288506
32543
316669
311244
248463
200475
338060
244492
230927
273865
309770
222148
343742
201176
152080
85701
428155
270261
174342
88041
3168
138375
247891
415674
130563
38847
180622
341530
385900
377003
270442
93724
253610
128822
396092
414214
45198
161200
358752
458545
462753
170773
264729
65463
496375
10150
236746
114742
367820
128313
114818
